p cnf 30 110
-6 1 0
-6 2 0
-7 1 0
-7 3 0
-8 1 0
-8 4 0
-9 1 0
-9 5 0
-10 2 0
-10 3 0
-11 2 0
-11 4 0
-12 2 0
-12 5 0
-13 3 0
-13 4 0
-14 3 0
-14 5 0
-15 4 0
-15 5 0
-21 16 0
-21 17 0
-22 16 0
-22 18 0
-23 16 0
-23 19 0
-24 16 0
-24 20 0
-25 17 0
-25 18 0
-26 17 0
-26 19 0
-27 17 0
-27 20 0
-28 18 0
-28 19 0
-29 18 0
-29 20 0
-30 19 0
-30 20 0
-6 -7 0
-6 -8 0
-6 -9 0
-7 -8 0
-7 -9 0
-8 -9 0
-6 -10 0
-6 -11 0
-6 -12 0
-10 -11 0
-10 -12 0
-11 -12 0
-7 -10 0
-7 -13 0
-7 -14 0
-10 -13 0
-10 -14 0
-13 -14 0
-8 -11 0
-8 -13 0
-8 -15 0
-11 -13 0
-11 -15 0
-13 -15 0
-9 -12 0
-9 -14 0
-9 -15 0
-12 -14 0
-12 -15 0
-14 -15 0
-1 6 7 8 9 0
-2 6 10 11 12 0
-3 7 10 13 14 0
-4 8 11 13 15 0
-5 9 12 14 15 0
-6 -7 0
-6 -8 0
-6 -9 0
-7 -8 0
-7 -9 0
-8 -9 0
-6 -10 0
-6 -11 0
-6 -12 0
-10 -11 0
-10 -12 0
-11 -12 0
-7 -10 0
-7 -13 0
-7 -14 0
-10 -13 0
-10 -14 0
-13 -14 0
-8 -11 0
-8 -13 0
-8 -15 0
-11 -13 0
-11 -15 0
-13 -15 0
-9 -12 0
-9 -14 0
-9 -15 0
-12 -14 0
-12 -15 0
-14 -15 0
-1 6 7 8 9 0
-2 6 10 11 12 0
-3 7 10 13 14 0
-4 8 11 13 15 0
-5 9 12 14 15 0
